language/examples/nl.txt
WeightNotOver (lbs.) SinglePiece 
1    4.47
2    5.22
3    5.97
4    6.72
5    7.47
